NAME: instance_837
TYPE: TSP
DIMENSION: 20
EDGE_WEIGHT_TYPE: EUC_2D
NODE_COORD_SECTION
0 27.16 85.00
1 53.64 86.08
2 23.94 14.46
3 70.28 24.01
4 52.80 97.70
5 97.12 49.99
6 63.61 27.93
7 38.63 41.43
8 66.31 90.14
9 27.73 57.52
10 62.93 45.08
11 92.22 37.48
12 19.51 50.53
13 20.41 92.02
14 53.26 63.57
15 65.64 53.49
16 94.91 63.65
17 42.65 77.50
18 57.65 53.82
19 59.12 49.46
EOF
